15

Ti        -0.12862        0.63488       -0.51216
O          0.30729       -1.80558       -0.43625
O         -1.73612        0.16480       -2.34153
O          1.62794        0.76827       -2.25811
O          1.54299        1.04059        1.27276
O         -1.92073        0.41925        1.18685
O         -0.56094        3.06935       -0.68897
Ba        -0.30200        1.91854       -2.80632
Ba         2.23464       -0.52746       -0.44115
Ba        -2.53596        1.52239       -1.00340
Ba        -1.94143       -1.27658       -0.54471
Ba        -0.50176        2.40639        1.72007
Ba         0.12278       -1.04136        1.47563
Ba         0.21891       -1.01505       -2.59118
Ba         1.84114        2.30758       -0.89485
